NAME          
ROWS
 N  OBJ
 L  c2
 L  c3
 L  c4
 L  c5
 L  c6
 L  c7
 L  c8
 L  c9
 L  c10
 L  c11
 G  c1
COLUMNS
    ss[1]     c1        1
    ss[1]     OBJ       1000
    s[1]      c2        1
    s[1]      OBJ       -1000
    s[2]      c3        1
    s[2]      OBJ       -1000
    s[3]      c4        1
    s[3]      OBJ       -1000
    s[4]      c5        1
    s[4]      OBJ       -1000
    s[5]      c6        1
    s[5]      OBJ       -1000
    s[6]      c7        1
    s[6]      OBJ       -1000
    s[7]      c8        1
    s[7]      OBJ       -1000
    s[8]      c9        1
    s[8]      OBJ       -1000
    s[9]      c10       1
    s[9]      OBJ       -1000
    s[10]     c11       1
    s[10]     OBJ       -1000
    MARKER    'MARKER'                 'INTORG'
    x[1]      c2        292
    x[1]      c3        414
    x[1]      c4        353
    x[1]      c5        110
    x[1]      c6        463
    x[1]      c7        620
    x[1]      c8        281
    x[1]      c9        749
    x[1]      c10       202
    x[1]      c11       395
    x[1]      c1        556
    x[1]      OBJ       -189
    x[2]      c2        819
    x[2]      c3        271
    x[2]      c4        346
    x[2]      c5        33
    x[2]      c6        800
    x[2]      c7        22
    x[2]      c8        462
    x[2]      c9        807
    x[2]      c10       122
    x[2]      c11       933
    x[2]      c1        736
    x[2]      OBJ       -41
    x[3]      c2        468
    x[3]      c3        673
    x[3]      c4        187
    x[3]      c5        870
    x[3]      c6        981
    x[3]      c7        943
    x[3]      c8        441
    x[3]      c9        1
    x[3]      c10       137
    x[3]      c11       327
    x[3]      c1        301
    x[3]      OBJ       -468
    x[4]      c2        428
    x[4]      c3        955
    x[4]      c4        109
    x[4]      c5        970
    x[4]      c6        527
    x[4]      c7        736
    x[4]      c8        173
    x[4]      c9        815
    x[4]      c10       432
    x[4]      c11       981
    x[4]      c1        111
    x[4]      OBJ       -702
    x[5]      c2        992
    x[5]      c3        697
    x[5]      c4        490
    x[5]      c5        735
    x[5]      c6        496
    x[5]      c7        104
    x[5]      c8        889
    x[5]      c9        198
    x[5]      c10       96
    x[5]      c11       500
    x[5]      c1        704
    x[5]      OBJ       -64
    x[6]      c2        241
    x[6]      c3        869
    x[6]      c4        387
    x[6]      c5        871
    x[6]      c6        260
    x[6]      c7        588
    x[6]      c8        66
    x[6]      c9        527
    x[6]      c10       902
    x[6]      c11       233
    x[6]      c1        408
    x[6]      OBJ       -518
    x[7]      c2        417
    x[7]      c3        290
    x[7]      c4        578
    x[7]      c5        507
    x[7]      c6        802
    x[7]      c7        906
    x[7]      c8        687
    x[7]      c9        233
    x[7]      c10       355
    x[7]      c11       175
    x[7]      c1        163
    x[7]      OBJ       -338
    x[8]      c2        939
    x[8]      c3        765
    x[8]      c4        127
    x[8]      c5        52
    x[8]      c6        671
    x[8]      c7        517
    x[8]      c8        693
    x[8]      c9        529
    x[8]      c10       432
    x[8]      c11       586
    x[8]      c1        315
    x[8]      OBJ       -453
    x[9]      c2        44
    x[9]      c3        634
    x[9]      c4        7
    x[9]      c5        735
    x[9]      c6        28
    x[9]      c7        247
    x[9]      c8        263
    x[9]      c9        260
    x[9]      c10       289
    x[9]      c11       403
    x[9]      c1        670
    x[9]      OBJ       -173
    x[10]     c2        447
    x[10]     c3        781
    x[10]     c4        221
    x[10]     c5        711
    x[10]     c6        61
    x[10]     c7        880
    x[10]     c8        846
    x[10]     c9        817
    x[10]     c10       439
    x[10]     c11       10
    x[10]     c1        457
    x[10]     OBJ       -456
    x[11]     c2        546
    x[11]     c3        514
    x[11]     c4        305
    x[11]     c5        631
    x[11]     c6        584
    x[11]     c7        710
    x[11]     c8        756
    x[11]     c9        318
    x[11]     c10       218
    x[11]     c11       773
    x[11]     c1        357
    x[11]     OBJ       -432
    x[12]     c2        134
    x[12]     c3        252
    x[12]     c4        841
    x[12]     c5        332
    x[12]     c6        715
    x[12]     c7        920
    x[12]     c8        677
    x[12]     c9        127
    x[12]     c10       98
    x[12]     c11       320
    x[12]     c1        916
    x[12]     OBJ       308
    x[13]     c2        639
    x[13]     c3        662
    x[13]     c4        881
    x[13]     c5        326
    x[13]     c6        461
    x[13]     c7        131
    x[13]     c8        54
    x[13]     c9        47
    x[13]     c10       857
    x[13]     c11       796
    x[13]     c1        614
    x[13]     OBJ       -210
    x[14]     c2        806
    x[14]     c3        704
    x[14]     c4        183
    x[14]     c5        634
    x[14]     c6        776
    x[14]     c7        143
    x[14]     c8        732
    x[14]     c9        221
    x[14]     c10       609
    x[14]     c11       131
    x[14]     c1        60
    x[14]     OBJ       -886
    x[15]     c2        150
    x[15]     c3        205
    x[15]     c4        647
    x[15]     c5        492
    x[15]     c6        68
    x[15]     c7        410
    x[15]     c8        575
    x[15]     c9        518
    x[15]     c10       812
    x[15]     c11       197
    x[15]     c1        373
    x[15]     OBJ       -475
    x[16]     c2        962
    x[16]     c3        869
    x[16]     c4        664
    x[16]     c5        358
    x[16]     c6        648
    x[16]     c7        964
    x[16]     c8        927
    x[16]     c9        427
    x[16]     c10       832
    x[16]     c11       2
    x[16]     c1        182
    x[16]     OBJ       -808
    x[17]     c2        229
    x[17]     c3        469
    x[17]     c4        646
    x[17]     c5        556
    x[17]     c6        147
    x[17]     c7        175
    x[17]     c8        86
    x[17]     c9        11
    x[17]     c10       59
    x[17]     c11       172
    x[17]     c1        129
    x[17]     OBJ       -219
    x[18]     c2        273
    x[18]     c3        501
    x[18]     c4        532
    x[18]     c5        532
    x[18]     c6        809
    x[18]     c7        720
    x[18]     c8        91
    x[18]     c9        415
    x[18]     c10       749
    x[18]     c11       499
    x[18]     c1        767
    x[18]     OBJ       -192
    x[19]     c2        457
    x[19]     c3        793
    x[19]     c4        757
    x[19]     c5        259
    x[19]     c6        547
    x[19]     c7        518
    x[19]     c8        924
    x[19]     c9        151
    x[19]     c10       810
    x[19]     c11       352
    x[19]     c1        896
    x[19]     OBJ       -79
    x[20]     c2        552
    x[20]     c3        738
    x[20]     c4        550
    x[20]     c5        852
    x[20]     c6        919
    x[20]     c7        58
    x[20]     c8        405
    x[20]     c9        679
    x[20]     c10       602
    x[20]     c11       553
    x[20]     c1        178
    x[20]     OBJ       -757
    x[21]     c2        189
    x[21]     c3        403
    x[21]     c4        316
    x[21]     c5        191
    x[21]     c6        702
    x[21]     c7        328
    x[21]     c8        658
    x[21]     c9        274
    x[21]     c10       834
    x[21]     c11       350
    x[21]     c1        975
    x[21]     OBJ       193
    x[22]     c2        38
    x[22]     c3        305
    x[22]     c4        243
    x[22]     c5        478
    x[22]     c6        173
    x[22]     c7        729
    x[22]     c8        620
    x[22]     c9        494
    x[22]     c10       977
    x[22]     c11       774
    x[22]     c1        226
    x[22]     OBJ       -706
    x[23]     c2        277
    x[23]     c3        619
    x[23]     c4        810
    x[23]     c5        400
    x[23]     c6        267
    x[23]     c7        467
    x[23]     c8        846
    x[23]     c9        199
    x[23]     c10       636
    x[23]     c11       571
    x[23]     c1        404
    x[23]     OBJ       -315
    x[24]     c2        987
    x[24]     c3        604
    x[24]     c4        404
    x[24]     c5        813
    x[24]     c6        104
    x[24]     c7        770
    x[24]     c8        39
    x[24]     c9        810
    x[24]     c10       585
    x[24]     c11       698
    x[24]     c1        833
    x[24]     OBJ       -126
    x[25]     c2        390
    x[25]     c3        676
    x[25]     c4        982
    x[25]     c5        708
    x[25]     c6        459
    x[25]     c7        974
    x[25]     c8        976
    x[25]     c9        267
    x[25]     c10       583
    x[25]     c11       986
    x[25]     c1        575
    x[25]     OBJ       -504
    x[26]     c2        978
    x[26]     c3        789
    x[26]     c4        877
    x[26]     c5        731
    x[26]     c6        910
    x[26]     c7        735
    x[26]     c8        836
    x[26]     c9        892
    x[26]     c10       246
    x[26]     c11       449
    x[26]     c1        340
    x[26]     OBJ       -668
    x[27]     c2        734
    x[27]     c3        977
    x[27]     c4        312
    x[27]     c5        742
    x[27]     c6        523
    x[27]     c7        217
    x[27]     c8        42
    x[27]     c9        603
    x[27]     c10       605
    x[27]     c11       561
    x[27]     c1        321
    x[27]     OBJ       -603
    x[28]     c2        807
    x[28]     c3        1
    x[28]     c4        894
    x[28]     c5        240
    x[28]     c6        839
    x[28]     c7        608
    x[28]     c8        217
    x[28]     c9        352
    x[28]     c10       888
    x[28]     c11       786
    x[28]     c1        580
    x[28]     OBJ       -355
    x[29]     c2        261
    x[29]     c3        777
    x[29]     c4        185
    x[29]     c5        544
    x[29]     c6        895
    x[29]     c7        774
    x[29]     c8        87
    x[29]     c9        77
    x[29]     c10       512
    x[29]     c11       402
    x[29]     c1        425
    x[29]     OBJ       -340
    x[30]     c2        833
    x[30]     c3        973
    x[30]     c4        122
    x[30]     c5        188
    x[30]     c6        826
    x[30]     c7        880
    x[30]     c8        220
    x[30]     c9        259
    x[30]     c10       352
    x[30]     c11       528
    x[30]     c1        955
    x[30]     OBJ       -75
    x[31]     c2        584
    x[31]     c3        43
    x[31]     c4        824
    x[31]     c5        348
    x[31]     c6        849
    x[31]     c7        741
    x[31]     c8        580
    x[31]     c9        21
    x[31]     c10       831
    x[31]     c11       881
    x[31]     c1        739
    x[31]     OBJ       -150
    x[32]     c2        162
    x[32]     c3        388
    x[32]     c4        770
    x[32]     c5        302
    x[32]     c6        745
    x[32]     c7        159
    x[32]     c8        309
    x[32]     c9        107
    x[32]     c10       41
    x[32]     c11       57
    x[32]     c1        473
    x[32]     OBJ       -181
    x[33]     c2        440
    x[33]     c3        813
    x[33]     c4        182
    x[33]     c5        276
    x[33]     c6        116
    x[33]     c7        669
    x[33]     c8        402
    x[33]     c9        319
    x[33]     c10       492
    x[33]     c11       236
    x[33]     c1        946
    x[33]     OBJ       458
    x[34]     c2        64
    x[34]     c3        554
    x[34]     c4        674
    x[34]     c5        204
    x[34]     c6        666
    x[34]     c7        185
    x[34]     c8        283
    x[34]     c9        530
    x[34]     c10       792
    x[34]     c11       576
    x[34]     c1        666
    x[34]     OBJ       -282
    x[35]     c2        697
    x[35]     c3        424
    x[35]     c4        614
    x[35]     c5        356
    x[35]     c6        271
    x[35]     c7        927
    x[35]     c8        210
    x[35]     c9        244
    x[35]     c10       644
    x[35]     c11       391
    x[35]     c1        630
    x[35]     OBJ       -88
    x[36]     c2        724
    x[36]     c3        823
    x[36]     c4        431
    x[36]     c5        634
    x[36]     c6        413
    x[36]     c7        737
    x[36]     c8        588
    x[36]     c9        844
    x[36]     c10       891
    x[36]     c11       889
    x[36]     c1        462
    x[36]     OBJ       -570
    x[37]     c2        495
    x[37]     c3        814
    x[37]     c4        429
    x[37]     c5        753
    x[37]     c6        774
    x[37]     c7        660
    x[37]     c8        494
    x[37]     c9        91
    x[37]     c10       697
    x[37]     c11       14
    x[37]     c1        841
    x[37]     OBJ       205
    x[38]     c2        323
    x[38]     c3        951
    x[38]     c4        268
    x[38]     c5        634
    x[38]     c6        331
    x[38]     c7        727
    x[38]     c8        14
    x[38]     c9        441
    x[38]     c10       665
    x[38]     c11       323
    x[38]     c1        2
    x[38]     OBJ       -555
    x[39]     c2        718
    x[39]     c3        337
    x[39]     c4        84
    x[39]     c5        488
    x[39]     c6        964
    x[39]     c7        444
    x[39]     c8        979
    x[39]     c9        547
    x[39]     c10       929
    x[39]     c11       843
    x[39]     c1        778
    x[39]     OBJ       -106
    x[40]     c2        654
    x[40]     c3        864
    x[40]     c4        52
    x[40]     c5        266
    x[40]     c6        43
    x[40]     c7        234
    x[40]     c8        276
    x[40]     c9        831
    x[40]     c10       60
    x[40]     c11       606
    x[40]     c1        714
    x[40]     OBJ       -90
    x[41]     c2        184
    x[41]     c3        588
    x[41]     c4        510
    x[41]     c5        153
    x[41]     c6        100
    x[41]     c7        278
    x[41]     c8        605
    x[41]     c9        301
    x[41]     c10       658
    x[41]     c11       309
    x[41]     c1        855
    x[41]     OBJ       -184
    x[42]     c2        5
    x[42]     c3        668
    x[42]     c4        392
    x[42]     c5        218
    x[42]     c6        631
    x[42]     c7        86
    x[42]     c8        61
    x[42]     c9        43
    x[42]     c10       540
    x[42]     c11       526
    x[42]     c1        768
    x[42]     OBJ       -143
    x[43]     c2        182
    x[43]     c3        104
    x[43]     c4        664
    x[43]     c5        579
    x[43]     c6        876
    x[43]     c7        169
    x[43]     c8        429
    x[43]     c9        146
    x[43]     c10       107
    x[43]     c11       339
    x[43]     c1        141
    x[43]     OBJ       -468
    x[44]     c2        292
    x[44]     c3        135
    x[44]     c4        215
    x[44]     c5        228
    x[44]     c6        926
    x[44]     c7        240
    x[44]     c8        719
    x[44]     c9        730
    x[44]     c10       392
    x[44]     c11       370
    x[44]     c1        847
    x[44]     OBJ       -1
    x[45]     c2        207
    x[45]     c3        515
    x[45]     c4        175
    x[45]     c5        737
    x[45]     c6        135
    x[45]     c7        514
    x[45]     c8        344
    x[45]     c9        671
    x[45]     c10       721
    x[45]     c11       108
    x[45]     c1        325
    x[45]     OBJ       -498
    x[46]     c2        370
    x[46]     c3        484
    x[46]     c4        726
    x[46]     c5        203
    x[46]     c6        809
    x[46]     c7        867
    x[46]     c8        605
    x[46]     c9        292
    x[46]     c10       315
    x[46]     c11       637
    x[46]     c1        765
    x[46]     OBJ       -76
    x[47]     c2        592
    x[47]     c3        183
    x[47]     c4        85
    x[47]     c5        768
    x[47]     c6        751
    x[47]     c7        314
    x[47]     c8        104
    x[47]     c9        876
    x[47]     c10       254
    x[47]     c11       321
    x[47]     c1        10
    x[47]     OBJ       -888
    x[48]     c2        145
    x[48]     c3        731
    x[48]     c4        650
    x[48]     c5        287
    x[48]     c6        304
    x[48]     c7        139
    x[48]     c8        177
    x[48]     c9        131
    x[48]     c10       815
    x[48]     c11       752
    x[48]     c1        162
    x[48]     OBJ       -382
    x[49]     c2        735
    x[49]     c3        272
    x[49]     c4        428
    x[49]     c5        752
    x[49]     c6        372
    x[49]     c7        345
    x[49]     c8        110
    x[49]     c9        98
    x[49]     c10       752
    x[49]     c11       997
    x[49]     c1        208
    x[49]     OBJ       -534
    x[50]     c2        86
    x[50]     c3        983
    x[50]     c4        819
    x[50]     c5        102
    x[50]     c6        474
    x[50]     c7        497
    x[50]     c8        13
    x[50]     c9        687
    x[50]     c10       536
    x[50]     c11       209
    x[50]     c1        981
    x[50]     OBJ       455
    x[51]     c2        542
    x[51]     c3        129
    x[51]     c4        570
    x[51]     c5        622
    x[51]     c6        338
    x[51]     c7        829
    x[51]     c8        86
    x[51]     c9        981
    x[51]     c10       714
    x[51]     c11       181
    x[51]     c1        638
    x[51]     OBJ       -151
    x[52]     c2        31
    x[52]     c3        496
    x[52]     c4        917
    x[52]     c5        558
    x[52]     c6        882
    x[52]     c7        508
    x[52]     c8        384
    x[52]     c9        332
    x[52]     c10       464
    x[52]     c11       4
    x[52]     c1        184
    x[52]     OBJ       -499
    x[53]     c2        956
    x[53]     c3        333
    x[53]     c4        970
    x[53]     c5        265
    x[53]     c6        513
    x[53]     c7        335
    x[53]     c8        55
    x[53]     c9        84
    x[53]     c10       999
    x[53]     c11       8
    x[53]     c1        124
    x[53]     OBJ       -404
    x[54]     c2        204
    x[54]     c3        791
    x[54]     c4        831
    x[54]     c5        435
    x[54]     c6        646
    x[54]     c7        837
    x[54]     c8        905
    x[54]     c9        457
    x[54]     c10       651
    x[54]     c11       543
    x[54]     c1        910
    x[54]     OBJ       -109
    x[55]     c2        87
    x[55]     c3        841
    x[55]     c4        245
    x[55]     c5        982
    x[55]     c6        376
    x[55]     c7        786
    x[55]     c8        280
    x[55]     c9        417
    x[55]     c10       140
    x[55]     c11       545
    x[55]     c1        332
    x[55]     OBJ       -196
    x[56]     c2        844
    x[56]     c3        393
    x[56]     c4        983
    x[56]     c5        484
    x[56]     c6        184
    x[56]     c7        990
    x[56]     c8        441
    x[56]     c9        1000
    x[56]     c10       640
    x[56]     c11       524
    x[56]     c1        634
    x[56]     OBJ       -21
    x[57]     c2        684
    x[57]     c3        85
    x[57]     c4        658
    x[57]     c5        512
    x[57]     c6        314
    x[57]     c7        898
    x[57]     c8        384
    x[57]     c9        660
    x[57]     c10       501
    x[57]     c11       959
    x[57]     c1        555
    x[57]     OBJ       -233
    x[58]     c2        63
    x[58]     c3        946
    x[58]     c4        703
    x[58]     c5        68
    x[58]     c6        533
    x[58]     c7        555
    x[58]     c8        792
    x[58]     c9        746
    x[58]     c10       150
    x[58]     c11       168
    x[58]     c1        55
    x[58]     OBJ       -688
    x[59]     c2        485
    x[59]     c3        812
    x[59]     c4        445
    x[59]     c5        66
    x[59]     c6        599
    x[59]     c7        103
    x[59]     c8        967
    x[59]     c9        636
    x[59]     c10       325
    x[59]     c11       255
    x[59]     c1        396
    x[59]     OBJ       -533
    x[60]     c2        499
    x[60]     c3        925
    x[60]     c4        690
    x[60]     c5        31
    x[60]     c6        158
    x[60]     c7        719
    x[60]     c8        215
    x[60]     c9        194
    x[60]     c10       736
    x[60]     c11       281
    x[60]     c1        23
    x[60]     OBJ       -648
    x[61]     c2        80
    x[61]     c3        318
    x[61]     c4        157
    x[61]     c5        550
    x[61]     c6        921
    x[61]     c7        3
    x[61]     c8        956
    x[61]     c9        903
    x[61]     c10       111
    x[61]     c11       61
    x[61]     c1        171
    x[61]     OBJ       -553
    x[62]     c2        720
    x[62]     c3        396
    x[62]     c4        490
    x[62]     c5        270
    x[62]     c6        771
    x[62]     c7        868
    x[62]     c8        542
    x[62]     c9        937
    x[62]     c10       889
    x[62]     c11       200
    x[62]     c1        310
    x[62]     OBJ       -715
    x[63]     c2        243
    x[63]     c3        967
    x[63]     c4        713
    x[63]     c5        637
    x[63]     c6        738
    x[63]     c7        13
    x[63]     c8        703
    x[63]     c9        422
    x[63]     c10       533
    x[63]     c11       3
    x[63]     c1        181
    x[63]     OBJ       -490
    x[64]     c2        319
    x[64]     c3        987
    x[64]     c4        465
    x[64]     c5        447
    x[64]     c6        173
    x[64]     c7        941
    x[64]     c8        234
    x[64]     c9        617
    x[64]     c10       417
    x[64]     c11       212
    x[64]     c1        378
    x[64]     OBJ       -240
    x[65]     c2        782
    x[65]     c3        793
    x[65]     c4        620
    x[65]     c5        572
    x[65]     c6        598
    x[65]     c7        855
    x[65]     c8        527
    x[65]     c9        632
    x[65]     c10       825
    x[65]     c11       634
    x[65]     c1        600
    x[65]     OBJ       -492
    x[66]     c2        571
    x[66]     c3        266
    x[66]     c4        918
    x[66]     c5        706
    x[66]     c6        647
    x[66]     c7        334
    x[66]     c8        832
    x[66]     c9        516
    x[66]     c10       948
    x[66]     c11       415
    x[66]     c1        742
    x[66]     OBJ       -220
    x[67]     c2        972
    x[67]     c3        631
    x[67]     c4        52
    x[67]     c5        666
    x[67]     c6        546
    x[67]     c7        564
    x[67]     c8        244
    x[67]     c9        731
    x[67]     c10       221
    x[67]     c11       503
    x[67]     c1        275
    x[67]     OBJ       -655
    x[68]     c2        72
    x[68]     c3        493
    x[68]     c4        786
    x[68]     c5        100
    x[68]     c6        219
    x[68]     c7        689
    x[68]     c8        592
    x[68]     c9        78
    x[68]     c10       113
    x[68]     c11       545
    x[68]     c1        601
    x[68]     OBJ       -58
    x[69]     c2        612
    x[69]     c3        707
    x[69]     c4        988
    x[69]     c5        129
    x[69]     c6        708
    x[69]     c7        452
    x[69]     c8        666
    x[69]     c9        233
    x[69]     c10       96
    x[69]     c11       608
    x[69]     c1        951
    x[69]     OBJ       388
    x[70]     c2        458
    x[70]     c3        982
    x[70]     c4        297
    x[70]     c5        792
    x[70]     c6        972
    x[70]     c7        394
    x[70]     c8        387
    x[70]     c9        42
    x[70]     c10       936
    x[70]     c11       313
    x[70]     c1        731
    x[70]     OBJ       -144
    x[71]     c2        395
    x[71]     c3        949
    x[71]     c4        166
    x[71]     c5        510
    x[71]     c6        475
    x[71]     c7        615
    x[71]     c8        889
    x[71]     c9        187
    x[71]     c10       719
    x[71]     c11       930
    x[71]     c1        166
    x[71]     OBJ       -769
    x[72]     c2        19
    x[72]     c3        382
    x[72]     c4        923
    x[72]     c5        833
    x[72]     c6        614
    x[72]     c7        597
    x[72]     c8        455
    x[72]     c9        922
    x[72]     c10       547
    x[72]     c11       820
    x[72]     c1        659
    x[72]     OBJ       -414
    x[73]     c2        764
    x[73]     c3        297
    x[73]     c4        396
    x[73]     c5        860
    x[73]     c6        136
    x[73]     c7        116
    x[73]     c8        668
    x[73]     c9        28
    x[73]     c10       131
    x[73]     c11       282
    x[73]     c1        15
    x[73]     OBJ       -543
    x[74]     c2        902
    x[74]     c3        30
    x[74]     c4        831
    x[74]     c5        622
    x[74]     c6        889
    x[74]     c7        852
    x[74]     c8        219
    x[74]     c9        834
    x[74]     c10       236
    x[74]     c11       686
    x[74]     c1        230
    x[74]     OBJ       -714
    x[75]     c2        6
    x[75]     c3        14
    x[75]     c4        193
    x[75]     c5        956
    x[75]     c6        471
    x[75]     c7        615
    x[75]     c8        524
    x[75]     c9        350
    x[75]     c10       439
    x[75]     c11       336
    x[75]     c1        577
    x[75]     OBJ       -55
    x[76]     c2        187
    x[76]     c3        658
    x[76]     c4        310
    x[76]     c5        122
    x[76]     c6        775
    x[76]     c7        636
    x[76]     c8        974
    x[76]     c9        623
    x[76]     c10       544
    x[76]     c11       86
    x[76]     c1        807
    x[76]     OBJ       -4
    x[77]     c2        779
    x[77]     c3        806
    x[77]     c4        575
    x[77]     c5        336
    x[77]     c6        271
    x[77]     c7        588
    x[77]     c8        855
    x[77]     c9        688
    x[77]     c10       645
    x[77]     c11       321
    x[77]     c1        420
    x[77]     OBJ       -539
    x[78]     c2        178
    x[78]     c3        763
    x[78]     c4        702
    x[78]     c5        212
    x[78]     c6        816
    x[78]     c7        917
    x[78]     c8        308
    x[78]     c9        479
    x[78]     c10       889
    x[78]     c11       896
    x[78]     c1        862
    x[78]     OBJ       -75
    x[79]     c2        714
    x[79]     c3        763
    x[79]     c4        560
    x[79]     c5        397
    x[79]     c6        709
    x[79]     c7        40
    x[79]     c8        91
    x[79]     c9        541
    x[79]     c10       806
    x[79]     c11       247
    x[79]     c1        974
    x[79]     OBJ       -20
    x[80]     c2        450
    x[80]     c3        850
    x[80]     c4        452
    x[80]     c5        14
    x[80]     c6        998
    x[80]     c7        118
    x[80]     c8        166
    x[80]     c9        525
    x[80]     c10       975
    x[80]     c11       749
    x[80]     c1        991
    x[80]     OBJ       -98
    x[81]     c2        768
    x[81]     c3        340
    x[81]     c4        887
    x[81]     c5        411
    x[81]     c6        750
    x[81]     c7        153
    x[81]     c8        310
    x[81]     c9        116
    x[81]     c10       491
    x[81]     c11       310
    x[81]     c1        795
    x[81]     OBJ       300
    x[82]     c2        454
    x[82]     c3        178
    x[82]     c4        194
    x[82]     c5        968
    x[82]     c6        673
    x[82]     c7        576
    x[82]     c8        235
    x[82]     c9        26
    x[82]     c10       972
    x[82]     c11       849
    x[82]     c1        938
    x[82]     OBJ       303
    x[83]     c2        37
    x[83]     c3        30
    x[83]     c4        87
    x[83]     c5        772
    x[83]     c6        887
    x[83]     c7        902
    x[83]     c8        725
    x[83]     c9        825
    x[83]     c10       90
    x[83]     c11       551
    x[83]     c1        792
    x[83]     OBJ       -111
    x[84]     c2        934
    x[84]     c3        204
    x[84]     c4        643
    x[84]     c5        812
    x[84]     c6        409
    x[84]     c7        696
    x[84]     c8        356
    x[84]     c9        689
    x[84]     c10       389
    x[84]     c11       550
    x[84]     c1        647
    x[84]     OBJ       -8
    x[85]     c2        796
    x[85]     c3        155
    x[85]     c4        735
    x[85]     c5        757
    x[85]     c6        257
    x[85]     c7        335
    x[85]     c8        136
    x[85]     c9        884
    x[85]     c10       205
    x[85]     c11       991
    x[85]     c1        59
    x[85]     OBJ       -472
    x[86]     c2        572
    x[86]     c3        69
    x[86]     c4        546
    x[86]     c5        263
    x[86]     c6        172
    x[86]     c7        254
    x[86]     c8        434
    x[86]     c9        558
    x[86]     c10       430
    x[86]     c11       8
    x[86]     c1        991
    x[86]     OBJ       446
    x[87]     c2        909
    x[87]     c3        655
    x[87]     c4        666
    x[87]     c5        402
    x[87]     c6        471
    x[87]     c7        285
    x[87]     c8        784
    x[87]     c9        389
    x[87]     c10       183
    x[87]     c11       696
    x[87]     c1        759
    x[87]     OBJ       -149
    x[88]     c2        803
    x[88]     c3        269
    x[88]     c4        943
    x[88]     c5        879
    x[88]     c6        556
    x[88]     c7        69
    x[88]     c8        92
    x[88]     c9        5
    x[88]     c10       205
    x[88]     c11       452
    x[88]     c1        627
    x[88]     OBJ       -257
    x[89]     c2        885
    x[89]     c3        133
    x[89]     c4        279
    x[89]     c5        656
    x[89]     c6        705
    x[89]     c7        672
    x[89]     c8        222
    x[89]     c9        759
    x[89]     c10       583
    x[89]     c11       746
    x[89]     c1        328
    x[89]     OBJ       -324
    x[90]     c2        235
    x[90]     c3        807
    x[90]     c4        327
    x[90]     c5        114
    x[90]     c6        297
    x[90]     c7        537
    x[90]     c8        733
    x[90]     c9        625
    x[90]     c10       422
    x[90]     c11       55
    x[90]     c1        902
    x[90]     OBJ       -95
    x[91]     c2        556
    x[91]     c3        217
    x[91]     c4        263
    x[91]     c5        54
    x[91]     c6        703
    x[91]     c7        107
    x[91]     c8        694
    x[91]     c9        666
    x[91]     c10       116
    x[91]     c11       704
    x[91]     c1        629
    x[91]     OBJ       -197
    x[92]     c2        172
    x[92]     c3        846
    x[92]     c4        537
    x[92]     c5        682
    x[92]     c6        975
    x[92]     c7        943
    x[92]     c8        412
    x[92]     c9        978
    x[92]     c10       998
    x[92]     c11       614
    x[92]     c1        510
    x[92]     OBJ       -216
    x[93]     c2        714
    x[93]     c3        525
    x[93]     c4        62
    x[93]     c5        132
    x[93]     c6        310
    x[93]     c7        831
    x[93]     c8        75
    x[93]     c9        765
    x[93]     c10       677
    x[93]     c11       523
    x[93]     c1        103
    x[93]     OBJ       -405
    x[94]     c2        327
    x[94]     c3        673
    x[94]     c4        272
    x[94]     c5        220
    x[94]     c6        8
    x[94]     c7        283
    x[94]     c8        784
    x[94]     c9        479
    x[94]     c10       833
    x[94]     c11       86
    x[94]     c1        788
    x[94]     OBJ       -42
    x[95]     c2        816
    x[95]     c3        32
    x[95]     c4        635
    x[95]     c5        570
    x[95]     c6        946
    x[95]     c7        207
    x[95]     c8        431
    x[95]     c9        326
    x[95]     c10       117
    x[95]     c11       43
    x[95]     c1        73
    x[95]     OBJ       -715
    x[96]     c2        106
    x[96]     c3        135
    x[96]     c4        371
    x[96]     c5        290
    x[96]     c6        362
    x[96]     c7        475
    x[96]     c8        854
    x[96]     c9        950
    x[96]     c10       527
    x[96]     c11       66
    x[96]     c1        379
    x[96]     OBJ       -56
    x[97]     c2        79
    x[97]     c3        875
    x[97]     c4        473
    x[97]     c5        624
    x[97]     c6        343
    x[97]     c7        946
    x[97]     c8        56
    x[97]     c9        408
    x[97]     c10       840
    x[97]     c11       605
    x[97]     c1        573
    x[97]     OBJ       -168
    x[98]     c2        45
    x[98]     c3        767
    x[98]     c4        583
    x[98]     c5        837
    x[98]     c6        855
    x[98]     c7        277
    x[98]     c8        565
    x[98]     c9        358
    x[98]     c10       39
    x[98]     c11       173
    x[98]     c1        783
    x[98]     OBJ       -82
    x[99]     c2        148
    x[99]     c3        927
    x[99]     c4        358
    x[99]     c5        486
    x[99]     c6        238
    x[99]     c7        638
    x[99]     c8        821
    x[99]     c9        379
    x[99]     c10       876
    x[99]     c11       600
    x[99]     c1        310
    x[99]     OBJ       -419
    x[100]    c2        864
    x[100]    c3        46
    x[100]    c4        511
    x[100]    c5        758
    x[100]    c6        497
    x[100]    c7        872
    x[100]    c8        299
    x[100]    c9        493
    x[100]    c10       811
    x[100]    c11       195
    x[100]    c1        38
    x[100]    OBJ       -775
RHS
    rhs       c2        11707
    rhs       c3        13635
    rhs       c4        12482
    rhs       c5        12083
    rhs       c6        13604
    rhs       c7        13138
    rhs       c8        11558
    rhs       c9        11625
    rhs       c10       13137
    rhs       c11       11240
    rhs       c1        12839
RANGES
BOUNDS
 LO bounds    ss[1]     0
 PL bounds    ss[1]
 MI bounds    s[1]
 UP bounds    s[1]      0
 MI bounds    s[2]
 UP bounds    s[2]      0
 MI bounds    s[3]
 UP bounds    s[3]      0
 MI bounds    s[4]
 UP bounds    s[4]      0
 MI bounds    s[5]
 UP bounds    s[5]      0
 MI bounds    s[6]
 UP bounds    s[6]      0
 MI bounds    s[7]
 UP bounds    s[7]      0
 MI bounds    s[8]
 UP bounds    s[8]      0
 MI bounds    s[9]
 UP bounds    s[9]      0
 MI bounds    s[10]
 UP bounds    s[10]     0
 BV bounds    x[1]
 BV bounds    x[2]
 BV bounds    x[3]
 BV bounds    x[4]
 BV bounds    x[5]
 BV bounds    x[6]
 BV bounds    x[7]
 BV bounds    x[8]
 BV bounds    x[9]
 BV bounds    x[10]
 BV bounds    x[11]
 BV bounds    x[12]
 BV bounds    x[13]
 BV bounds    x[14]
 BV bounds    x[15]
 BV bounds    x[16]
 BV bounds    x[17]
 BV bounds    x[18]
 BV bounds    x[19]
 BV bounds    x[20]
 BV bounds    x[21]
 BV bounds    x[22]
 BV bounds    x[23]
 BV bounds    x[24]
 BV bounds    x[25]
 BV bounds    x[26]
 BV bounds    x[27]
 BV bounds    x[28]
 BV bounds    x[29]
 BV bounds    x[30]
 BV bounds    x[31]
 BV bounds    x[32]
 BV bounds    x[33]
 BV bounds    x[34]
 BV bounds    x[35]
 BV bounds    x[36]
 BV bounds    x[37]
 BV bounds    x[38]
 BV bounds    x[39]
 BV bounds    x[40]
 BV bounds    x[41]
 BV bounds    x[42]
 BV bounds    x[43]
 BV bounds    x[44]
 BV bounds    x[45]
 BV bounds    x[46]
 BV bounds    x[47]
 BV bounds    x[48]
 BV bounds    x[49]
 BV bounds    x[50]
 BV bounds    x[51]
 BV bounds    x[52]
 BV bounds    x[53]
 BV bounds    x[54]
 BV bounds    x[55]
 BV bounds    x[56]
 BV bounds    x[57]
 BV bounds    x[58]
 BV bounds    x[59]
 BV bounds    x[60]
 BV bounds    x[61]
 BV bounds    x[62]
 BV bounds    x[63]
 BV bounds    x[64]
 BV bounds    x[65]
 BV bounds    x[66]
 BV bounds    x[67]
 BV bounds    x[68]
 BV bounds    x[69]
 BV bounds    x[70]
 BV bounds    x[71]
 BV bounds    x[72]
 BV bounds    x[73]
 BV bounds    x[74]
 BV bounds    x[75]
 BV bounds    x[76]
 BV bounds    x[77]
 BV bounds    x[78]
 BV bounds    x[79]
 BV bounds    x[80]
 BV bounds    x[81]
 BV bounds    x[82]
 BV bounds    x[83]
 BV bounds    x[84]
 BV bounds    x[85]
 BV bounds    x[86]
 BV bounds    x[87]
 BV bounds    x[88]
 BV bounds    x[89]
 BV bounds    x[90]
 BV bounds    x[91]
 BV bounds    x[92]
 BV bounds    x[93]
 BV bounds    x[94]
 BV bounds    x[95]
 BV bounds    x[96]
 BV bounds    x[97]
 BV bounds    x[98]
 BV bounds    x[99]
 BV bounds    x[100]
ENDATA
